\ Model Routes
\ LP format - for model browsing. Use MPS format to capture full model detail.
Maximize
  - 191.7153353028244 R{0,0} + 623.2046552982704 R{0,1}
   + 623.2046552982704 R{0,2} - 249.2301939667805 R{0,3}
   - 223.5191598158195 R{0,4} + 876.4702428658231 R{0,5}
   + 876.4702428658231 R{0,6} + 923.8644386511348 R{0,7}
   + 281.9883365781351 R{0,8} + 125.0266633354767 R{0,9}
   + 208.081007134918 R{0,10} - 256.140831891889 R{1,0}
   + 216.3226429839851 R{1,1} + 843.8103196491563 R{1,2}
   + 865.8435766166604 R{1,3} + 234.8762735232644 R{1,4}
   + 263.1513026158279 R{1,5} + 6.845312714161025 R{1,6}
   + 175.258793129373 R{1,7} + 357.734013199791 R{1,8}
   + 223.5535695116518 R{1,9} + 1093.798514858772 R{1,10}
   + 966.4962483187182 R{2,0} + 966.4962483187182 R{2,1}
   - 278.4443928850388 R{2,2} + 96.64804243541232 R{2,3}
   + 1554.55142910273 R{2,4} + 947.5724883564153 R{2,5}
   + 124.111107645844 R{2,6} + 947.5724883564153 R{2,7}
   + 541.7818528934409 R{2,8} + 177.9883099738421 R{2,9}
   + 591.0325885092791 R{2,10} - 260.2482995389823 R{3,0}
   + 522.4398281754088 R{3,1} + 1230.485940651614 R{3,2}
   + 264.2461283351852 R{3,3} + 959.3451405544915 R{3,4}
   + 268.8531015465391 R{3,5} + 1029.03232029437 R{3,6}
   + 882.2723411383754 R{3,7} + 934.2170622031308 R{3,8}
   - 242.5208875955131 R{4,0} + 876.7794431846835 R{4,1}
   + 1386.596574514046 R{4,2} + 900.9616045702467 R{4,3}
   + 737.004921086456 R{4,4} + 518.5444238564176 R{4,5}
   + 737.004921086456 R{4,6} + 925.2674557094845 R{4,7}
   + 158.8460496311781 R{4,8} + 900.9616045702467 R{4,9}
   + 925.2674557094845 R{4,10} + 1213.172674449751 R{4,11}
   + 1293.544008172987 R{4,12} + 830.7554937359218 R{4,13}
   + 564.9313522654738 R{4,14} + 911.3519046777724 R{4,15}
   + 1058.013661847813 R{4,16} + 621.8767233302658 R{4,17}
   + 1745.631128093457 R{4,18} - 231.9775664337766 R{5,0}
   + 357.5804114360171 R{5,1} + 942.0446328252956 R{5,2}
   + 300.6221370846046 R{5,3} + 279.08767350511 R{5,4}
   + 987.1418765680701 R{5,5} + 402.6776551787916 R{5,6}
   + 279.08767350511 R{5,7} + 713.2383255652717 R{5,8}
   + 514.8755902039593 R{5,9} - 231.1436095783099 R{6,0}
   + 1138.017709432251 R{6,1} + 1971.275382897198 R{6,2}
   + 2315.873740052186 R{6,3} + 2026.44884526813 R{6,4}
   + 1405.87469022429 R{6,5} + 937.5104885426094 R{6,6}
   + 1822.489258643465 R{6,7} + 489.6204211314267 R{6,8}
   + 1851.332732508127 R{6,9} + 1928.081467857473 R{6,10}
   + 1053.091385773355 R{6,11} + 1250.189586944193 R{6,12}
   + 1842.848006294251 R{6,13} + 2182.962559112054 R{6,14}
   + 2558.169655671664 R{6,15}
Subject To
 R00: R{0,0} <= 1
 R01: R{0,1} <= 1
 R02: R{0,2} <= 1
 R03: R{0,3} <= 1
 R04: R{0,4} <= 1
 R05: R{0,5} <= 1
 R06: R{0,6} <= 1
 R07: R{0,7} <= 1
 R08: R{0,8} <= 1
 R09: R{0,9} <= 1
 R010: R{0,10} <= 1
 R011: R{1,0} <= 1
 R012: R{1,1} <= 1
 R013: R{1,2} <= 1
 R014: R{1,3} <= 1
 R015: R{1,4} <= 1
 R016: R{1,5} <= 1
 R017: R{1,6} <= 1
 R018: R{1,7} <= 1
 R019: R{1,8} <= 1
 R020: R{1,9} <= 1
 R021: R{1,10} <= 1
 R022: R{2,0} <= 1
 R023: R{2,1} <= 1
 R024: R{2,2} <= 1
 R025: R{2,3} <= 1
 R026: R{2,4} <= 1
 R027: R{2,5} <= 1
 R028: R{2,6} <= 1
 R029: R{2,7} <= 1
 R030: R{2,8} <= 1
 R031: R{2,9} <= 1
 R032: R{2,10} <= 1
 R033: R{3,0} <= 1
 R034: R{3,1} <= 1
 R035: R{3,2} <= 1
 R036: R{3,3} <= 1
 R037: R{3,4} <= 1
 R038: R{3,5} <= 1
 R039: R{3,6} <= 1
 R040: R{3,7} <= 1
 R041: R{3,8} <= 1
 R042: R{4,0} <= 1
 R043: R{4,1} <= 1
 R044: R{4,2} <= 1
 R045: R{4,3} <= 1
 R046: R{4,4} <= 1
 R047: R{4,5} <= 1
 R048: R{4,6} <= 1
 R049: R{4,7} <= 1
 R050: R{4,8} <= 1
 R051: R{4,9} <= 1
 R052: R{4,10} <= 1
 R053: R{4,11} <= 1
 R054: R{4,12} <= 1
 R055: R{4,13} <= 1
 R056: R{4,14} <= 1
 R057: R{4,15} <= 1
 R058: R{4,16} <= 1
 R059: R{4,17} <= 1
 R060: R{4,18} <= 1
 R061: R{5,0} <= 1
 R062: R{5,1} <= 1
 R063: R{5,2} <= 1
 R064: R{5,3} <= 1
 R065: R{5,4} <= 1
 R066: R{5,5} <= 1
 R067: R{5,6} <= 1
 R068: R{5,7} <= 1
 R069: R{5,8} <= 1
 R070: R{5,9} <= 1
 R071: R{6,0} <= 1
 R072: R{6,1} <= 1
 R073: R{6,2} <= 1
 R074: R{6,3} <= 1
 R075: R{6,4} <= 1
 R076: R{6,5} <= 1
 R077: R{6,6} <= 1
 R078: R{6,7} <= 1
 R079: R{6,8} <= 1
 R080: R{6,9} <= 1
 R081: R{6,10} <= 1
 R082: R{6,11} <= 1
 R083: R{6,12} <= 1
 R084: R{6,13} <= 1
 R085: R{6,14} <= 1
 R086: R{6,15} <= 1
 R1_0: R{0,0} + R{0,1} + R{0,2} + R{0,3} + R{0,4} + R{0,5} + R{0,6}
   + R{0,7} + R{0,8} + R{0,9} + R{0,10} <= 1
 R1_1: R{1,0} + R{1,1} + R{1,2} + R{1,3} + R{1,4} + R{1,5} + R{1,6}
   + R{1,7} + R{1,8} + R{1,9} + R{1,10} <= 1
 R1_2: R{2,0} + R{2,1} + R{2,2} + R{2,3} + R{2,4} + R{2,5} + R{2,6}
   + R{2,7} + R{2,8} + R{2,9} + R{2,10} <= 1
 R1_3: R{3,0} + R{3,1} + R{3,2} + R{3,3} + R{3,4} + R{3,5} + R{3,6}
   + R{3,7} + R{3,8} <= 1
 R1_4: R{4,0} + R{4,1} + R{4,2} + R{4,3} + R{4,4} + R{4,5} + R{4,6}
   + R{4,7} + R{4,8} + R{4,9} + R{4,10} + R{4,11} + R{4,12} + R{4,13}
   + R{4,14} + R{4,15} + R{4,16} + R{4,17} + R{4,18} <= 1
 R1_5: R{5,0} + R{5,1} + R{5,2} + R{5,3} + R{5,4} + R{5,5} + R{5,6}
   + R{5,7} + R{5,8} + R{5,9} <= 1
 R1_6: R{6,0} + R{6,1} + R{6,2} + R{6,3} + R{6,4} + R{6,5} + R{6,6}
   + R{6,7} + R{6,8} + R{6,9} + R{6,10} + R{6,11} + R{6,12} + R{6,13}
   + R{6,14} + R{6,15} <= 1
 R2_0: <= 0
 R2_1: 10 R{3,1} + 10 R{3,2} + 10 R{3,4} + 10 R{3,6} + 10 R{3,7} <= 10
 R2_2: <= 0
 R2_3: 4 R{0,4} + 4 R{0,5} + 4 R{0,6} + 4 R{0,7} <= 4
 R2_4: <= 0
 R2_5: 5 R{0,4} + 5 R{0,5} + 5 R{0,6} <= 5
 R2_6: 10 R{1,1} + 10 R{1,2} + 10 R{1,3} + 10 R{1,4} + 10 R{1,5}
   + 10 R{1,7} + 10 R{1,10} + 10 R{6,14} + 10 R{6,15} <= 10
 R2_7: 6 R{1,1} + 6 R{1,4} + 6 R{1,5} + 6 R{1,6} + 6 R{1,8} <= 6
 R2_8: <= 0
 R2_9: <= 12
 R2_10: 8 R{6,1} + 8 R{6,2} + 8 R{6,4} + 8 R{6,5} + 8 R{6,6} + 8 R{6,7}
   + 8 R{6,8} + 8 R{6,9} + 8 R{6,10} + 8 R{6,11} + 8 R{6,13} + 8 R{6,14}
   <= 8
 R2_11: 15 R{6,14} + 15 R{6,15} <= 15
 R2_12: <= 0
 R2_13: <= 0
 R2_14: <= 0
 R2_15: 11 R{0,0} + 11 R{0,1} + 11 R{0,2} + 11 R{0,8} + 11 R{4,1}
   + 11 R{4,2} + 11 R{4,7} + 11 R{4,10} + 11 R{4,15} <= 11
 R2_16: <= 0
 R2_17: <= 0
 R2_18: <= 0
 R2_19: 11 R{1,8} + 11 R{3,8} + 11 R{4,1} + 11 R{4,2} + 11 R{4,3}
   + 11 R{4,4} + 11 R{4,5} + 11 R{4,6} + 11 R{4,7} + 11 R{4,9} + 11 R{4,10}
   + 11 R{4,11} + 11 R{4,12} + 11 R{4,13} + 11 R{4,15} + 11 R{4,16}
   + 11 R{5,8} <= 11
 R2_20: 13 R{0,10} + 13 R{1,9} + 13 R{2,4} + 13 R{2,9} + 13 R{3,7}
   + 13 R{3,8} + 13 R{5,9} + 13 R{6,1} + 13 R{6,2} + 13 R{6,3} + 13 R{6,4}
   + 13 R{6,6} + 13 R{6,7} + 13 R{6,9} + 13 R{6,10} + 13 R{6,12}
   + 13 R{6,13} <= 13
 R2_21: <= 0
 R2_22: <= 0
 R2_23: 14 R{0,1} + 14 R{0,2} + 14 R{0,8} + 14 R{2,0} + 14 R{2,1}
   + 14 R{2,5} + 14 R{2,7} + 14 R{2,8} + 14 R{2,10} + 14 R{6,2} + 14 R{6,3}
   + 14 R{6,4} + 14 R{6,5} + 14 R{6,7} + 14 R{6,9} + 14 R{6,10}
   + 14 R{6,13} <= 14
 R2_24: 10 R{3,1} + 10 R{3,2} + 10 R{3,3} + 10 R{3,5} + 10 R{3,7}
   + 10 R{3,8} <= 10
 R2_25: 13 R{4,1} + 13 R{4,2} + 13 R{4,3} + 13 R{4,4} + 13 R{4,5}
   + 13 R{4,6} + 13 R{4,7} + 13 R{4,8} + 13 R{4,9} + 13 R{4,10}
   + 13 R{4,11} + 13 R{4,12} + 13 R{4,13} + 13 R{4,14} + 13 R{4,16}
   + 13 R{4,17} + 13 R{4,18} <= 13
 R2_26: 6 R{2,4} + 6 R{5,1} + 6 R{5,2} + 6 R{5,3} + 6 R{5,4} + 6 R{5,5}
   + 6 R{5,6} + 6 R{5,7} + 6 R{5,8} <= 6
 R2_27: 5 R{0,5} + 5 R{0,6} + 5 R{0,7} + 5 R{4,17} + 5 R{4,18} + 5 R{6,1}
   + 5 R{6,2} + 5 R{6,3} + 5 R{6,4} + 5 R{6,5} + 5 R{6,6} + 5 R{6,7}
   + 5 R{6,8} + 5 R{6,9} + 5 R{6,10} + 5 R{6,11} + 5 R{6,12} + 5 R{6,13}
   + 5 R{6,14} + 5 R{6,15} <= 5
 R2_28: <= 0
 R2_29: <= 0
 R2_30: <= 0
 R2_31: <= 0
 R2_32: 7 R{2,3} + 7 R{2,6} <= 7
 R2_33: 12 R{1,10} <= 12
 R2_34: 5 R{6,14} + 5 R{6,15} <= 5
 R2_35: <= 0
 R2_36: <= 0
 R2_37: 5 R{3,1} + 5 R{3,2} + 5 R{3,3} + 5 R{3,4} + 5 R{3,5} + 5 R{3,6}
   <= 5
 R2_38: <= 0
 R2_39: <= 0
 R2_40: 15 R{2,3} + 15 R{2,4} + 15 R{2,6} <= 15
 R2_41: 5 R{0,9} + 5 R{4,11} + 5 R{4,13} + 5 R{4,15} + 5 R{4,17}
   + 5 R{4,18} + 5 R{6,10} + 5 R{6,11} + 5 R{6,14} + 5 R{6,15} <= 5
 R2_42: 4 R{2,3} + 4 R{2,6} <= 4
 R2_43: <= 0
 R2_44: <= 0
 R2_45: <= 0
 R2_46: 9 R{4,12} + 9 R{4,16} + 9 R{4,18} <= 9
 R2_47: 7 R{5,1} + 7 R{5,2} + 7 R{5,3} + 7 R{5,5} + 7 R{5,6} <= 7
 R2_48: 4 R{4,1} + 4 R{4,2} + 4 R{4,3} + 4 R{4,4} + 4 R{4,6} + 4 R{4,7}
   + 4 R{4,9} + 4 R{4,10} + 4 R{4,11} + 4 R{4,12} + 4 R{4,15} <= 4
 R2_49: <= 0
 R2_50: <= 0
 R2_51: 11 R{4,1} + 11 R{4,3} + 11 R{4,7} + 11 R{4,9} + 11 R{4,10}
   + 11 R{4,11} + 11 R{4,12} + 11 R{4,16} + 11 R{4,18} <= 11
 R2_52: 10 R{4,14} + 10 R{4,18} <= 10
 R2_53: 13 R{4,1} + 13 R{4,2} + 13 R{4,3} + 13 R{4,4} + 13 R{4,5}
   + 13 R{4,6} + 13 R{4,7} + 13 R{4,8} + 13 R{4,9} + 13 R{4,10}
   + 13 R{4,12} + 13 R{4,15} + 13 R{4,16} <= 13
 R2_54: 9 R{3,1} + 9 R{3,2} + 9 R{3,3} + 9 R{3,4} + 9 R{3,5} + 9 R{3,6}
   + 9 R{3,7} + 9 R{3,8} <= 9
 R2_55: 8 R{6,1} + 8 R{6,2} + 8 R{6,3} + 8 R{6,4} + 8 R{6,5} + 8 R{6,6}
   + 8 R{6,8} + 8 R{6,9} + 8 R{6,10} + 8 R{6,11} + 8 R{6,12} + 8 R{6,13}
   <= 8
 R2_56: 6 R{2,0} + 6 R{2,1} + 6 R{2,5} + 6 R{2,7} + 6 R{6,2} + 6 R{6,3}
   + 6 R{6,4} + 6 R{6,5} + 6 R{6,7} + 6 R{6,9} + 6 R{6,14} + 6 R{6,15}
   <= 6
 R2_57: <= 0
 R2_58: <= 0
 R2_59: 10 R{4,14} + 10 R{6,13} <= 10
 R2_60: <= 0
 R2_61: 9 R{4,18} <= 9
 R2_62: <= 0
 R2_63: <= 0
 R2_64: <= 0
 R2_65: <= 5
 R2_66: 7 R{6,1} + 7 R{6,2} + 7 R{6,3} + 7 R{6,4} + 7 R{6,5} + 7 R{6,7}
   + 7 R{6,9} + 7 R{6,10} + 7 R{6,11} + 7 R{6,13} + 7 R{6,14} + 7 R{6,15}
   <= 7
 R2_67: 3 R{0,1} + 3 R{0,2} + 3 R{2,0} + 3 R{2,1} + 3 R{2,5} + 3 R{2,7}
   + 3 R{2,8} + 3 R{2,10} + 3 R{6,3} + 3 R{6,12} + 3 R{6,15} <= 3
 R2_68: 6 R{1,1} + 6 R{1,2} + 6 R{1,3} + 6 R{1,4} + 6 R{1,5} + 6 R{1,6}
   + 6 R{1,7} + 6 R{1,8} + 6 R{1,10} + 6 R{6,14} + 6 R{6,15} <= 6
 R2_69: 7 R{4,1} + 7 R{4,2} + 7 R{4,3} + 7 R{4,4} + 7 R{4,5} + 7 R{4,6}
   + 7 R{4,7} + 7 R{4,8} + 7 R{4,9} + 7 R{4,10} + 7 R{4,11} + 7 R{4,12}
   + 7 R{4,13} + 7 R{4,14} + 7 R{4,15} + 7 R{4,16} <= 7
 R2_70: 11 R{1,1} + 11 R{1,2} + 11 R{1,3} + 11 R{1,6} + 11 R{1,8} <= 11
 R2_71: 7 R{6,1} + 7 R{6,2} + 7 R{6,3} + 7 R{6,4} + 7 R{6,5} + 7 R{6,6}
   + 7 R{6,7} + 7 R{6,8} + 7 R{6,10} + 7 R{6,11} + 7 R{6,12} + 7 R{6,13}
   + 7 R{6,14} + 7 R{6,15} <= 7
 R2_72: <= 0
 R2_73: <= 0
 R2_74: 5 R{5,1} + 5 R{5,6} + 5 R{5,8} <= 5
 R2_75: 8 R{6,1} + 8 R{6,2} + 8 R{6,3} + 8 R{6,4} + 8 R{6,7} + 8 R{6,9}
   <= 8
 R2_76: 12 R{2,4} + 12 R{5,1} + 12 R{5,2} + 12 R{5,3} + 12 R{5,4}
   + 12 R{5,5} + 12 R{5,6} + 12 R{5,7} + 12 R{5,8} + 12 R{5,9} <= 12
 R2_77: 7 R{0,5} + 7 R{0,6} + 7 R{0,7} + 7 R{1,2} + 7 R{1,3} + 7 R{1,10}
   + 7 R{2,4} + 7 R{3,2} + 7 R{3,4} + 7 R{3,6} + 7 R{4,2} + 7 R{5,2}
   + 7 R{5,5} <= 7
Bounds
End
